solution status: optimal solution found
objective value:                                    4
C0013                                               1 	(obj:0)
C0015                                               1 	(obj:0)
C0023                                               1 	(obj:0)
C0024                                               1 	(obj:0)
C0412                                               1 	(obj:0)
C0415                                               1 	(obj:0)
C0425                                               1 	(obj:0)
C0426                                               1 	(obj:0)
C0505                                               1 	(obj:0)
C0506                                               1 	(obj:0)
C0507                                               1 	(obj:0)
C0509                                               1 	(obj:0)
C0514                                               1 	(obj:0)
C0516                                               1 	(obj:0)
C0518                                               1 	(obj:0)
C0520                                               1 	(obj:0)
C0534                                               1 	(obj:0)
C0536                                               1 	(obj:0)
C0537                                               1 	(obj:0)
C0539                                               1 	(obj:0)
C0547                                               1 	(obj:0)
C0548                                               1 	(obj:0)
C0549                                               1 	(obj:0)
C0550                                               1 	(obj:0)
C0605                                               1 	(obj:0)
C0610                                               1 	(obj:0)
C0615                                               1 	(obj:0)
C0616                                               1 	(obj:0)
C0627                                               1 	(obj:0)
C0628                                               1 	(obj:0)
C1471                                               1 	(obj:0)
C1474                                               1 	(obj:0)
C1485                                               1 	(obj:0)
C1491                                               1 	(obj:0)
C1504                                               1 	(obj:0)
C1507                                               1 	(obj:0)
C1669                                               1 	(obj:0)
C1670                                               1 	(obj:0)
C1673                                               1 	(obj:0)
C1674                                               1 	(obj:0)
C1677                                               1 	(obj:0)
C1678                                               1 	(obj:0)
C1680                                               1 	(obj:0)
C1681                                               1 	(obj:0)
C1683                                               1 	(obj:0)
C1684                                               1 	(obj:0)
C1687                                               1 	(obj:0)
C1688                                               1 	(obj:0)
C1691                                               1 	(obj:0)
C1692                                               1 	(obj:0)
C1696                                               1 	(obj:0)
C1698                                               1 	(obj:0)
C1709                                               1 	(obj:0)
C1710                                               1 	(obj:0)
C1711                                               1 	(obj:0)
C1713                                               1 	(obj:0)
C1723                                               1 	(obj:0)
C1724                                               1 	(obj:0)
C1727                                               1 	(obj:0)
C1728                                               1 	(obj:0)
C1737                                               1 	(obj:0)
C1738                                               1 	(obj:0)
C1741                                               1 	(obj:0)
C1742                                               1 	(obj:0)
C1746                                               1 	(obj:0)
C1747                                               1 	(obj:0)
C1752                                               1 	(obj:0)
C1753                                               1 	(obj:0)
C1755                                               1 	(obj:0)
C1756                                               1 	(obj:0)
C1757                                               1 	(obj:0)
C1758                                               1 	(obj:0)
C1766                                               1 	(obj:0)
C1768                                               1 	(obj:0)
C1769                                               1 	(obj:0)
C1770                                               1 	(obj:0)
C1825                                               1 	(obj:0)
C1864                                               1 	(obj:0)
C1874                                               1 	(obj:0)
C1897                                               1 	(obj:0)
C1938                                               1 	(obj:0)
C1945                                               1 	(obj:0)
C1969                                               1 	(obj:0)
C2000                                               1 	(obj:0)
C2029                                               1 	(obj:0)
C2056                                               1 	(obj:0)
C2083                                               1 	(obj:0)
C2106                                               1 	(obj:0)
C2120                                               1 	(obj:0)
C2153                                               1 	(obj:0)
C2165                                               1 	(obj:0)
C2193                                               1 	(obj:0)
C2209                                               1 	(obj:0)
C2233                                               1 	(obj:0)
C2267                                               1 	(obj:0)
C2282                                               1 	(obj:0)
C2305                                               1 	(obj:0)
C2329                                               1 	(obj:0)
C2356                                               1 	(obj:0)
C2397                                               1 	(obj:0)
C2406                                               1 	(obj:0)
C2426                                               1 	(obj:0)
C2454                                               1 	(obj:0)
C2489                                               1 	(obj:0)
C2502                                               1 	(obj:0)
C2544                                               1 	(obj:0)
C2567                                               1 	(obj:0)
C2584                                               1 	(obj:0)
C2607                                               1 	(obj:0)
C2632                                               1 	(obj:0)
C2641                                               1 	(obj:0)
C2682                                               1 	(obj:0)
C2702                                               1 	(obj:0)
C2713                                               1 	(obj:0)
C2746                                               1 	(obj:0)
C2763                                               1 	(obj:0)
C2785                                               1 	(obj:0)
C2811                                               1 	(obj:0)
C2834                                               1 	(obj:0)
C2857                                               1 	(obj:0)
C2902                                               1 	(obj:0)
C2922                                               1 	(obj:0)
C2929                                               1 	(obj:0)
C2963                                               1 	(obj:0)
C2989                                               1 	(obj:0)
C3024                                               1 	(obj:0)
C3043                                               1 	(obj:0)
C3061                                               1 	(obj:0)
C3073                                               1 	(obj:0)
C3104                                               1 	(obj:0)
C3121                                               1 	(obj:0)
C3156                                               1 	(obj:0)
C3189                                               1 	(obj:0)
C3200                                               1 	(obj:0)
C3225                                               1 	(obj:0)
C3255                                               1 	(obj:0)
C3287                                               1 	(obj:0)
C3301                                               1 	(obj:0)
C3319                                               1 	(obj:0)
C3339                                               1 	(obj:0)
C3366                                               1 	(obj:0)
C3399                                               1 	(obj:0)
C3421                                               1 	(obj:0)
C3443                                               1 	(obj:0)
C3465                                               1 	(obj:0)
C3500                                               1 	(obj:0)
C3505                                               1 	(obj:0)
C3551                                               1 	(obj:0)
C3576                                               1 	(obj:0)
C3598                                               1 	(obj:0)
C3601                                               1 	(obj:0)
C3625                                               1 	(obj:0)
C3650                                               1 	(obj:0)
C3673                                               1 	(obj:0)
C3717                                               1 	(obj:0)
C3741                                               1 	(obj:0)
C3756                                               1 	(obj:0)
C3792                                               1 	(obj:0)
C3793                                               1 	(obj:0)
C3820                                               1 	(obj:0)
C3841                                               1 	(obj:0)
C3876                                               1 	(obj:0)
C3898                                               1 	(obj:0)
C3926                                               1 	(obj:0)
C3937                                               1 	(obj:0)
C3964                                               1 	(obj:0)
C3985                                               1 	(obj:0)
C4009                                               1 	(obj:0)
C4044                                               1 	(obj:0)
C4074                                               1 	(obj:0)
C4101                                               1 	(obj:0)
C4105                                               1 	(obj:0)
C4135                                               1 	(obj:0)
C4176                                               1 	(obj:0)
C4177                                               1 	(obj:0)
C4204                                               1 	(obj:0)
C4243                                               1 	(obj:0)
C4249                                               1 	(obj:0)
C4280                                               1 	(obj:0)
C4319                                               1 	(obj:0)
C4327                                               1 	(obj:0)
C4362                                               1 	(obj:0)
C4388                                               1 	(obj:0)
C4410                                               1 	(obj:0)
C4428                                               1 	(obj:0)
C4441                                               1 	(obj:0)
C4465                                               1 	(obj:0)
C4489                                               1 	(obj:0)
C4513                                               1 	(obj:0)
C4552                                               1 	(obj:0)
C4564                                               1 	(obj:0)
C4604                                               1 	(obj:0)
C4618                                               1 	(obj:0)
C4633                                               1 	(obj:0)
C4667                                               1 	(obj:0)
C4681                                               1 	(obj:0)
C4725                                               1 	(obj:0)
C4740                                               1 	(obj:0)
C4773                                               1 	(obj:0)
C4777                                               1 	(obj:0)
C4824                                               1 	(obj:0)
C4839                                               1 	(obj:0)
C4870                                               1 	(obj:0)
C4894                                               1 	(obj:0)
C4914                                               1 	(obj:0)
C4942                                               1 	(obj:0)
C4966                                               1 	(obj:0)
C4990                                               1 	(obj:0)
C5015                                               1 	(obj:0)
C5027                                               1 	(obj:0)
C5041                                               1 	(obj:0)
C5087                                               1 	(obj:0)
C5110                                               1 	(obj:0)
C5135                                               1 	(obj:0)
C5142                                               1 	(obj:0)
C5161                                               1 	(obj:0)
C5186                                               1 	(obj:0)
C5230                                               1 	(obj:0)
C5233                                               1 	(obj:0)
C5257                                               1 	(obj:0)
C5281                                               1 	(obj:1)
C5298                                               1 	(obj:1)
C5302                                               1 	(obj:1)
C5303                                               1 	(obj:1)
C5308                                               1 	(obj:0)
C5309                                               1 	(obj:0)
C5310                                               1 	(obj:0)
C5408                                               1 	(obj:0)
C5410                                               1 	(obj:0)
C5412                                               1 	(obj:0)
C5431                                               1 	(obj:0)
C5432                                               1 	(obj:0)
C5433                                               1 	(obj:0)
C5434                                               1 	(obj:0)
C5436                                               1 	(obj:0)
C5437                                               1 	(obj:0)
C5439                                               1 	(obj:0)
C5440                                               1 	(obj:0)
C5441                                               1 	(obj:0)
C5442                                               1 	(obj:0)
C5449                                               1 	(obj:0)
C5450                                               1 	(obj:0)
C5500                                               1 	(obj:0)
C5502                                               1 	(obj:0)
C5514                                               1 	(obj:0)
C5516                                               1 	(obj:0)
C5756                                               4 	(obj:0)
C5754                                               4 	(obj:0)
C5742                                               2 	(obj:0)
C5740                                               4 	(obj:0)
C5690                                               2 	(obj:0)
C5689                                               4 	(obj:0)
C5682                                               4 	(obj:0)
C5681                                               4 	(obj:0)
C5680                                               4 	(obj:0)
C5679                                               4 	(obj:0)
C5677                                               4 	(obj:0)
C5676                                               4 	(obj:0)
C5674                                               4 	(obj:0)
C5673                                               4 	(obj:0)
C5672                                               4 	(obj:0)
C5671                                               4 	(obj:0)
C5652                                               2 	(obj:0)
C5650                                               2 	(obj:0)
C5648                                               2 	(obj:0)
C5550                                               2 	(obj:0)
C5549                                               2 	(obj:0)
C5548                                               2 	(obj:0)
C5543                                               8 	(obj:0)
C5542                                               8 	(obj:0)
C5538                                               4 	(obj:0)
C5521                                               4 	(obj:0)
